# CIF file 
data_findsym-output
_audit_creation_method FINDSYM

_chemical_name_mineral 'Nacolite'
_chemical_formula_sum 'C H Na O3'

loop_
_publ_author_name
 'R. L. Sass'
 'R. F. Scheuerman'
_journal_name_full_name
;
 Acta Cristallographica
;
_journal_volume 15
_journal_year 1962
_journal_page_first 77
_journal_page_last 81
_publ_Section_title
;
 The Crystal Structure of Sodium Bicarbonate
;

# Found in The American Mineralogist Crystal Structure Database, 2003

_aflow_title 'Nahcolite (NaHCO$_{3}$, $G0_{12}$) Structure'
_aflow_proto 'ABCD3_mP24_14_e_e_e_3e'
_aflow_params 'a,b/a,c/a,\beta,x_{1},y_{1},z_{1},x_{2},y_{2},z_{2},x_{3},y_{3},z_{3},x_{4},y_{4},z_{4},x_{5},y_{5},z_{5},x_{6},y_{6},z_{6}'
_aflow_params_values '3.51,2.76638176638,2.29344729345,111.85,0.2098,0.237,-0.0768,0.74205,0.2539,0.1773,0.4274,0.0047,0.7145,0.1896,0.3668,-0.0709,-0.0117,0.1629,0.7946,0.4958,0.1707,0.06'
_aflow_Strukturbericht '$G0_{12}$'
_aflow_Pearson 'mP24'

_symmetry_space_group_name_H-M "P 1 21/c 1"
_symmetry_Int_Tables_number 14
 
_cell_length_a    3.51000
_cell_length_b    9.71000
_cell_length_c    8.05000
_cell_angle_alpha 90.00000
_cell_angle_beta  111.85000
_cell_angle_gamma 90.00000
 
loop_
_space_group_symop_id
_space_group_symop_operation_xyz
1 x,y,z
2 -x,y+1/2,-z+1/2
3 -x,-y,-z
4 x,-y+1/2,z+1/2
 
loop_
_atom_site_label
_atom_site_type_symbol
_atom_site_symmetry_multiplicity
_atom_site_Wyckoff_label
_atom_site_fract_x
_atom_site_fract_y
_atom_site_fract_z
_atom_site_occupancy
C1 C 4 e 0.20980 0.23700 -0.07680 1.00000
H1 H 4 e 0.74205 0.25390 0.17730 1.00000
Na1 Na 4 e 0.42740 0.00470 0.71450 1.00000
O1 O 4 e 0.18960 0.36680 -0.07090 1.00000
O2 O 4 e -0.01170 0.16290 0.79460 1.00000
O3 O 4 e 0.49580 0.17070 0.06000 1.00000