# CIF file 
data_findsym-output
_audit_creation_method FINDSYM

_chemical_name_mineral 'C6H4K2N6O2PtS6'
_chemical_formula_sum 'C6 H4 K2 N6 O2 Pt S6'

loop_
_publ_author_name
 'J. Arpalahti'
 'J. H\"{o}ls\"{a}'
 'R. Sillanp\"{a}\"{a}'
_journal_name_full_name
;
 Acta Chemica Scandinavica
;
_journal_volume 47
_journal_year 1993
_journal_page_first 1078
_journal_page_last 1082
_publ_Section_title
;
 Studies on Potassium Thiocyanatoplatinates. II. Crystal Structure of Potassium Hexathiocyanatoplatinate(IV) Dihydrate, K$_{2}$Pt(SCN)$_{6}$ $\cdot$ 2H$_{2}$O
;

_aflow_title 'K$_{2}$Pt(SCN)$_{6}$$\cdot$2H$_{2}$O Structure'
_aflow_proto 'A6B4C2D6E2FG6_mP54_14_3e_2e_e_3e_e_a_3e'
_aflow_params 'a,b/a,c/a,\beta,x_{2},y_{2},z_{2},x_{3},y_{3},z_{3},x_{4},y_{4},z_{4},x_{5},y_{5},z_{5},x_{6},y_{6},z_{6},x_{7},y_{7},z_{7},x_{8},y_{8},z_{8},x_{9},y_{9},z_{9},x_{10},y_{10},z_{10},x_{11},y_{11},z_{11},x_{12},y_{12},z_{12},x_{13},y_{13},z_{13},x_{14},y_{14},z_{14}'
_aflow_params_values '11.33,0.983495145631,0.644571932921,94.76,0.7648,0.8251,-0.0619,0.2402,-0.0953,0.8473,0.2213,-0.0589,0.3316,0.4514,-0.0915,0.1233,0.5826,-0.0741,0.2021,0.4986,0.8473,0.6064,0.6695,0.8204,-0.0303,0.327,0.8561,0.8963,0.2991,-0.0101,0.4229,0.5087,-0.0876,0.2358,-0.0988,0.8216,0.8743,0.1151,-0.0193,0.7552,0.1129,0.8611,0.2058'
_aflow_Strukturbericht 'None'
_aflow_Pearson 'mP54'

_symmetry_space_group_name_H-M "P 1 21/c 1"
_symmetry_Int_Tables_number 14
 
_cell_length_a    11.33000
_cell_length_b    11.14300
_cell_length_c    7.30300
_cell_angle_alpha 90.00000
_cell_angle_beta  94.76000
_cell_angle_gamma 90.00000
 
loop_
_space_group_symop_id
_space_group_symop_operation_xyz
1 x,y,z
2 -x,y+1/2,-z+1/2
3 -x,-y,-z
4 x,-y+1/2,z+1/2
 
loop_
_atom_site_label
_atom_site_type_symbol
_atom_site_symmetry_multiplicity
_atom_site_Wyckoff_label
_atom_site_fract_x
_atom_site_fract_y
_atom_site_fract_z
_atom_site_occupancy
Pt1 Pt 2 a 0.00000 0.00000 0.00000 1.00000
C1 C 4 e 0.76480 0.82510 -0.06190 1.00000
C2 C 4 e 0.24020 -0.09530 0.84730 1.00000
C3 C 4 e 0.22130 -0.05890 0.33160 1.00000
H1 H 4 e 0.45140 -0.09150 0.12330 1.00000
H2 H 4 e 0.58260 -0.07410 0.20210 1.00000
K1 K 4 e 0.49860 0.84730 0.60640 1.00000
N1 N 4 e 0.66950 0.82040 -0.03030 1.00000
N2 N 4 e 0.32700 0.85610 0.89630 1.00000
N3 N 4 e 0.29910 -0.01010 0.42290 1.00000
O1 O 4 e 0.50870 -0.08760 0.23580 1.00000
S1 S 4 e -0.09880 0.82160 0.87430 1.00000
S2 S 4 e 0.11510 -0.01930 0.75520 1.00000
S3 S 4 e 0.11290 0.86110 0.20580 1.00000