# CIF file 
data_findsym-output
_audit_creation_method FINDSYM

_chemical_name_mineral 'AlCH30NO20S2'
_chemical_formula_sum 'Al C H30 N O20 S2'

loop_
_publ_author_name
 'R. O. W. Fletcher'
 'H. Steeple'
_journal_name_full_name
;
 Acta Cristallographica
;
_journal_volume 17
_journal_year 1964
_journal_page_first 290
_journal_page_last 294
_publ_Section_title
;
 The crystal structure of the low-temperature phase of methylammonium alum
;

_aflow_title 'Low-Temperature (NH$_{3}$CH$_{3}$)Al(SO$_{4}$)$_{2}$$\cdot$12H$_{2}$O Structure'
_aflow_proto 'ABC30DE20F2_oP220_29_a_a_30a_a_20a_2a'
_aflow_params 'a,b/a,c/a,x_{1},y_{1},z_{1},x_{2},y_{2},z_{2},x_{3},y_{3},z_{3},x_{4},y_{4},z_{4},x_{5},y_{5},z_{5},x_{6},y_{6},z_{6},x_{7},y_{7},z_{7},x_{8},y_{8},z_{8},x_{9},y_{9},z_{9},x_{10},y_{10},z_{10},x_{11},y_{11},z_{11},x_{12},y_{12},z_{12},x_{13},y_{13},z_{13},x_{14},y_{14},z_{14},x_{15},y_{15},z_{15},x_{16},y_{16},z_{16},x_{17},y_{17},z_{17},x_{18},y_{18},z_{18},x_{19},y_{19},z_{19},x_{20},y_{20},z_{20},x_{21},y_{21},z_{21},x_{22},y_{22},z_{22},x_{23},y_{23},z_{23},x_{24},y_{24},z_{24},x_{25},y_{25},z_{25},x_{26},y_{26},z_{26},x_{27},y_{27},z_{27},x_{28},y_{28},z_{28},x_{29},y_{29},z_{29},x_{30},y_{30},z_{30},x_{31},y_{31},z_{31},x_{32},y_{32},z_{32},x_{33},y_{33},z_{33},x_{34},y_{34},z_{34},x_{35},y_{35},z_{35},x_{36},y_{36},z_{36},x_{37},y_{37},z_{37},x_{38},y_{38},z_{38},x_{39},y_{39},z_{39},x_{40},y_{40},z_{40},x_{41},y_{41},z_{41},x_{42},y_{42},z_{42},x_{43},y_{43},z_{43},x_{44},y_{44},z_{44},x_{45},y_{45},z_{45},x_{46},y_{46},z_{46},x_{47},y_{47},z_{47},x_{48},y_{48},z_{48},x_{49},y_{49},z_{49},x_{50},y_{50},z_{50},x_{51},y_{51},z_{51},x_{52},y_{52},z_{52},x_{53},y_{53},z_{53},x_{54},y_{54},z_{54},x_{55},y_{55},z_{55}'
_aflow_params_values '12.57,0.980906921241,0.984884645982,0.006,0.259,0.256,0.047,0.77,0.28,0.21,0.237,0.305,0.199,0.277,0.175,0.196,0.722,0.693,0.193,0.774,0.825,0.076,0.057,0.235,0.048,0.953,0.781,0.07,0.455,0.22,0.059,0.542,0.768,0.026,0.18,0.45,0.024,0.698,0.96,0.025,0.192,0.048,0.021,0.68,0.547,0.006,0.012,0.502,0.136,0.06,0.507,0.247,0.385,0.557,0.243,0.264,0.012,0.225,0.488,0.752,0.183,0.48,0.885,0.004,0.503,0.502,0.139,0.552,0.49,0.249,0.757,0.49,0.244,0.893,0.445,0.249,0.01,0.743,0.202,0.002,0.108,0.12,0.784,0.34,0.033,0.84,0.245,0.083,0.71,0.225,0.119,0.275,0.665,0.017,0.33,0.755,0.08,0.205,0.775,0.045,0.268,0.711,0.136,0.04,0.811,0.24,0.022,0.978,0.064,0.096,0.976,0.199,0.202,0.904,0.169,0.528,0.19,0.225,0.51,0.011,0.061,0.61,0.046,0.231,0.684,0.097,0.153,0.257,0.236,0.145,0.748,0.759,0.012,0.105,0.258,0.003,0.405,0.247,0.007,0.242,0.397,0.0,0.256,0.098,0.228,0.302,0.591,0.154,0.456,0.801,0.235,0.808,0.425,0.174,0.988,0.182,0.057,0.086,0.521,0.053,0.577,0.472,0.163,0.088,0.915,0.171,0.581,0.085'
_aflow_Strukturbericht 'None'
_aflow_Pearson 'oP220'

_symmetry_space_group_name_H-M "P c a 21"
_symmetry_Int_Tables_number 29
 
_cell_length_a    12.57000
_cell_length_b    12.33000
_cell_length_c    12.38000
_cell_angle_alpha 90.00000
_cell_angle_beta  90.00000
_cell_angle_gamma 90.00000
 
loop_
_space_group_symop_id
_space_group_symop_operation_xyz
1 x,y,z
2 -x,-y,z+1/2
3 -x+1/2,y,z+1/2
4 x+1/2,-y,z
 
loop_
_atom_site_label
_atom_site_type_symbol
_atom_site_symmetry_multiplicity
_atom_site_Wyckoff_label
_atom_site_fract_x
_atom_site_fract_y
_atom_site_fract_z
_atom_site_occupancy
Al1 Al 4 a 0.00600 0.25900 0.25600 1.00000
C1 C 4 a 0.04700 0.77000 0.28000 1.00000
H1 H 4 a 0.21000 0.23700 0.30500 1.00000
H2 H 4 a 0.19900 0.27700 0.17500 1.00000
H3 H 4 a 0.19600 0.72200 0.69300 1.00000
H4 H 4 a 0.19300 0.77400 0.82500 1.00000
H5 H 4 a 0.07600 0.05700 0.23500 1.00000
H6 H 4 a 0.04800 0.95300 0.78100 1.00000
H7 H 4 a 0.07000 0.45500 0.22000 1.00000
H8 H 4 a 0.05900 0.54200 0.76800 1.00000
H9 H 4 a 0.02600 0.18000 0.45000 1.00000
H10 H 4 a 0.02400 0.69800 0.96000 1.00000
H11 H 4 a 0.02500 0.19200 0.04800 1.00000
H12 H 4 a 0.02100 0.68000 0.54700 1.00000
H13 H 4 a 0.00600 0.01200 0.50200 1.00000
H14 H 4 a 0.13600 0.06000 0.50700 1.00000
H15 H 4 a 0.24700 0.38500 0.55700 1.00000
H16 H 4 a 0.24300 0.26400 0.01200 1.00000
H17 H 4 a 0.22500 0.48800 0.75200 1.00000
H18 H 4 a 0.18300 0.48000 0.88500 1.00000
H19 H 4 a 0.00400 0.50300 0.50200 1.00000
H20 H 4 a 0.13900 0.55200 0.49000 1.00000
H21 H 4 a 0.24900 0.75700 0.49000 1.00000
H22 H 4 a 0.24400 0.89300 0.44500 1.00000
H23 H 4 a 0.24900 0.01000 0.74300 1.00000
H24 H 4 a 0.20200 0.00200 0.10800 1.00000
H25 H 4 a 0.12000 0.78400 0.34000 1.00000
H26 H 4 a 0.03300 0.84000 0.24500 1.00000
H27 H 4 a 0.08300 0.71000 0.22500 1.00000
H28 H 4 a 0.11900 0.27500 0.66500 1.00000
H29 H 4 a 0.01700 0.33000 0.75500 1.00000
H30 H 4 a 0.08000 0.20500 0.77500 1.00000
N1 N 4 a 0.04500 0.26800 0.71100 1.00000
O1 O 4 a 0.13600 0.04000 0.81100 1.00000
O2 O 4 a 0.24000 0.02200 0.97800 1.00000
O3 O 4 a 0.06400 0.09600 0.97600 1.00000
O4 O 4 a 0.19900 0.20200 0.90400 1.00000
O5 O 4 a 0.16900 0.52800 0.19000 1.00000
O6 O 4 a 0.22500 0.51000 0.01100 1.00000
O7 O 4 a 0.06100 0.61000 0.04600 1.00000
O8 O 4 a 0.23100 0.68400 0.09700 1.00000
O9 O 4 a 0.15300 0.25700 0.23600 1.00000
O10 O 4 a 0.14500 0.74800 0.75900 1.00000
O11 O 4 a 0.01200 0.10500 0.25800 1.00000
O12 O 4 a 0.00300 0.40500 0.24700 1.00000
O13 O 4 a 0.00700 0.24200 0.39700 1.00000
O14 O 4 a 0.00000 0.25600 0.09800 1.00000
O15 O 4 a 0.22800 0.30200 0.59100 1.00000
O16 O 4 a 0.15400 0.45600 0.80100 1.00000
O17 O 4 a 0.23500 0.80800 0.42500 1.00000
O18 O 4 a 0.17400 0.98800 0.18200 1.00000
O19 O 4 a 0.05700 0.08600 0.52100 1.00000
O20 O 4 a 0.05300 0.57700 0.47200 1.00000
S1 S 4 a 0.16300 0.08800 0.91500 1.00000
S2 S 4 a 0.17100 0.58100 0.08500 1.00000